c "110268.clq"
p edge 100 1344
e 1 17
e 1 18
e 1 19
e 1 20
e 1 21
e 1 22
e 1 23
e 1 24
e 1 25
e 1 26
e 1 28
e 1 33
e 1 34
e 1 36
e 1 40
e 1 42
e 1 44
e 1 47
e 1 59
e 1 60
e 1 66
e 1 68
e 1 70
e 1 72
e 1 87
e 1 94
e 1 100
e 2 17
e 2 18
e 2 19
e 2 20
e 2 22
e 2 24
e 2 25
e 2 28
e 2 31
e 2 32
e 2 33
e 2 34
e 2 40
e 2 43
e 2 51
e 2 58
e 2 80
e 2 81
e 2 86
e 2 95
e 3 17
e 3 18
e 3 22
e 3 24
e 3 33
e 3 44
e 3 48
e 3 49
e 3 50
e 3 52
e 3 60
e 3 62
e 3 65
e 3 66
e 3 68
e 3 86
e 3 87
e 3 89
e 3 92
e 3 98
e 4 17
e 4 18
e 4 19
e 4 20
e 4 21
e 4 22
e 4 23
e 4 24
e 4 26
e 4 27
e 4 28
e 4 29
e 4 30
e 4 31
e 4 32
e 4 34
e 4 35
e 4 38
e 4 39
e 4 45
e 4 48
e 4 49
e 4 51
e 4 52
e 4 55
e 4 56
e 4 58
e 4 64
e 4 66
e 4 70
e 4 72
e 4 77
e 4 79
e 4 87
e 4 96
e 5 17
e 5 19
e 5 20
e 5 22
e 5 23
e 5 31
e 5 33
e 5 49
e 5 62
e 5 91
e 5 92
e 6 17
e 6 18
e 6 19
e 6 20
e 6 21
e 6 24
e 6 29
e 6 30
e 6 42
e 6 44
e 6 50
e 6 53
e 6 61
e 6 76
e 6 77
e 6 81
e 6 91
e 6 98
e 7 17
e 7 18
e 7 19
e 7 20
e 7 21
e 7 22
e 7 23
e 7 24
e 7 26
e 7 28
e 7 29
e 7 34
e 7 37
e 7 40
e 7 43
e 7 44
e 7 48
e 7 58
e 7 62
e 7 63
e 7 71
e 7 79
e 7 82
e 7 98
e 8 17
e 8 18
e 8 19
e 8 20
e 8 21
e 8 23
e 8 24
e 8 25
e 8 35
e 8 36
e 8 37
e 8 39
e 8 41
e 8 61
e 8 73
e 8 96
e 8 99
e 9 17
e 9 18
e 9 20
e 9 21
e 9 22
e 9 23
e 9 25
e 9 31
e 9 33
e 9 35
e 9 37
e 9 39
e 9 42
e 9 47
e 9 53
e 9 56
e 9 60
e 9 61
e 9 65
e 9 84
e 9 85
e 9 90
e 10 17
e 10 18
e 10 19
e 10 21
e 10 22
e 10 23
e 10 25
e 10 27
e 10 32
e 10 43
e 10 46
e 10 58
e 10 61
e 10 63
e 10 67
e 10 69
e 10 70
e 10 76
e 10 80
e 10 82
e 10 88
e 10 95
e 11 17
e 11 18
e 11 19
e 11 21
e 11 23
e 11 26
e 11 27
e 11 28
e 11 29
e 11 35
e 11 38
e 11 39
e 11 40
e 11 42
e 11 43
e 11 47
e 11 48
e 11 50
e 11 51
e 11 54
e 11 61
e 11 64
e 11 77
e 11 82
e 11 89
e 11 95
e 12 17
e 12 18
e 12 19
e 12 20
e 12 21
e 12 25
e 12 28
e 12 29
e 12 30
e 12 32
e 12 34
e 12 36
e 12 44
e 12 51
e 12 53
e 12 59
e 12 63
e 12 70
e 12 74
e 12 78
e 12 81
e 12 87
e 12 95
e 13 17
e 13 18
e 13 19
e 13 20
e 13 21
e 13 22
e 13 23
e 13 24
e 13 25
e 13 27
e 13 28
e 13 31
e 13 32
e 13 39
e 13 41
e 13 51
e 13 63
e 13 67
e 13 81
e 13 83
e 13 90
e 13 91
e 13 95
e 14 17
e 14 18
e 14 19
e 14 20
e 14 22
e 14 24
e 14 26
e 14 27
e 14 28
e 14 32
e 14 36
e 14 41
e 14 44
e 14 45
e 14 48
e 14 49
e 14 51
e 14 54
e 14 55
e 14 61
e 14 69
e 14 71
e 14 75
e 14 76
e 14 79
e 14 81
e 14 97
e 14 98
e 15 17
e 15 18
e 15 19
e 15 20
e 15 21
e 15 26
e 15 27
e 15 28
e 15 29
e 15 30
e 15 34
e 15 37
e 15 40
e 15 59
e 15 60
e 15 85
e 15 95
e 15 98
e 16 17
e 16 18
e 16 19
e 16 20
e 16 21
e 16 22
e 16 23
e 16 25
e 16 26
e 16 27
e 16 30
e 16 31
e 16 32
e 16 33
e 16 34
e 16 37
e 16 38
e 16 41
e 16 42
e 16 43
e 16 46
e 16 54
e 16 63
e 16 66
e 16 69
e 16 71
e 16 85
e 16 86
e 16 90
e 17 18
e 17 19
e 17 20
e 17 21
e 17 22
e 17 23
e 17 24
e 17 25
e 17 26
e 17 27
e 17 29
e 17 30
e 17 31
e 17 32
e 17 34
e 17 35
e 17 37
e 17 38
e 17 39
e 17 40
e 17 44
e 17 46
e 17 47
e 17 48
e 17 51
e 17 52
e 17 54
e 17 55
e 17 56
e 17 57
e 17 62
e 17 64
e 17 67
e 17 73
e 17 76
e 17 77
e 17 86
e 17 87
e 17 90
e 17 91
e 17 95
e 17 97
e 17 100
e 18 19
e 18 20
e 18 21
e 18 22
e 18 23
e 18 24
e 18 25
e 18 26
e 18 27
e 18 30
e 18 33
e 18 34
e 18 35
e 18 36
e 18 38
e 18 39
e 18 40
e 18 41
e 18 42
e 18 43
e 18 44
e 18 45
e 18 46
e 18 49
e 18 52
e 18 53
e 18 54
e 18 59
e 18 60
e 18 61
e 18 65
e 18 66
e 18 69
e 18 75
e 18 78
e 18 85
e 18 86
e 18 94
e 18 98
e 18 99
e 18 100
e 19 20
e 19 21
e 19 22
e 19 23
e 19 24
e 19 25
e 19 26
e 19 27
e 19 28
e 19 29
e 19 30
e 19 31
e 19 32
e 19 33
e 19 34
e 19 35
e 19 36
e 19 37
e 19 39
e 19 41
e 19 42
e 19 47
e 19 49
e 19 51
e 19 52
e 19 53
e 19 54
e 19 56
e 19 57
e 19 62
e 19 63
e 19 64
e 19 65
e 19 66
e 19 67
e 19 68
e 19 71
e 19 72
e 19 75
e 19 77
e 19 79
e 19 80
e 19 82
e 19 83
e 19 85
e 19 89
e 19 90
e 19 97
e 20 21
e 20 22
e 20 23
e 20 24
e 20 25
e 20 26
e 20 27
e 20 28
e 20 29
e 20 30
e 20 31
e 20 32
e 20 33
e 20 34
e 20 35
e 20 36
e 20 37
e 20 38
e 20 39
e 20 40
e 20 41
e 20 42
e 20 43
e 20 45
e 20 46
e 20 47
e 20 50
e 20 52
e 20 54
e 20 55
e 20 57
e 20 59
e 20 65
e 20 66
e 20 67
e 20 68
e 20 71
e 20 77
e 20 78
e 20 79
e 20 80
e 20 82
e 20 85
e 20 88
e 20 89
e 20 97
e 20 100
e 21 22
e 21 23
e 21 24
e 21 25
e 21 26
e 21 27
e 21 28
e 21 29
e 21 30
e 21 33
e 21 34
e 21 36
e 21 37
e 21 38
e 21 45
e 21 46
e 21 47
e 21 50
e 21 54
e 21 55
e 21 56
e 21 57
e 21 58
e 21 65
e 21 66
e 21 69
e 21 70
e 21 71
e 21 72
e 21 77
e 21 83
e 21 93
e 21 95
e 22 23
e 22 24
e 22 25
e 22 26
e 22 27
e 22 28
e 22 30
e 22 32
e 22 33
e 22 34
e 22 35
e 22 37
e 22 38
e 22 39
e 22 42
e 22 45
e 22 49
e 22 50
e 22 52
e 22 53
e 22 56
e 22 58
e 22 59
e 22 68
e 22 75
e 22 77
e 22 78
e 22 84
e 22 88
e 22 93
e 22 94
e 22 96
e 22 100
e 23 24
e 23 25
e 23 26
e 23 28
e 23 29
e 23 30
e 23 31
e 23 33
e 23 34
e 23 35
e 23 36
e 23 38
e 23 39
e 23 41
e 23 43
e 23 45
e 23 49
e 23 50
e 23 51
e 23 56
e 23 57
e 23 60
e 23 63
e 23 66
e 23 68
e 23 72
e 23 73
e 23 78
e 23 81
e 23 84
e 23 88
e 23 89
e 23 94
e 23 100
e 24 25
e 24 26
e 24 27
e 24 28
e 24 29
e 24 30
e 24 33
e 24 35
e 24 40
e 24 41
e 24 43
e 24 46
e 24 52
e 24 54
e 24 59
e 24 64
e 24 74
e 24 76
e 24 77
e 24 83
e 24 84
e 24 89
e 25 26
e 25 27
e 25 28
e 25 29
e 25 31
e 25 32
e 25 33
e 25 35
e 25 36
e 25 37
e 25 42
e 25 43
e 25 44
e 25 45
e 25 46
e 25 47
e 25 51
e 25 55
e 25 56
e 25 60
e 25 64
e 25 65
e 25 68
e 25 73
e 25 75
e 25 77
e 25 79
e 25 80
e 25 83
e 25 85
e 25 86
e 25 89
e 25 90
e 25 92
e 25 93
e 25 97
e 26 27
e 26 29
e 26 30
e 26 31
e 26 36
e 26 37
e 26 38
e 26 39
e 26 40
e 26 41
e 26 42
e 26 44
e 26 45
e 26 47
e 26 51
e 26 52
e 26 53
e 26 57
e 26 58
e 26 59
e 26 60
e 26 64
e 26 70
e 26 74
e 26 81
e 26 82
e 26 83
e 26 93
e 26 94
e 26 95
e 26 97
e 27 29
e 27 30
e 27 31
e 27 32
e 27 38
e 27 39
e 27 40
e 27 41
e 27 42
e 27 45
e 27 47
e 27 52
e 27 53
e 27 54
e 27 56
e 27 59
e 27 64
e 27 72
e 27 78
e 27 81
e 27 96
e 28 29
e 28 30
e 28 31
e 28 32
e 28 35
e 28 37
e 28 39
e 28 41
e 28 42
e 28 43
e 28 44
e 28 45
e 28 48
e 28 49
e 28 50
e 28 51
e 28 52
e 28 55
e 28 56
e 28 59
e 28 61
e 28 62
e 28 63
e 28 64
e 28 70
e 28 73
e 28 74
e 28 75
e 28 76
e 28 79
e 28 82
e 28 85
e 28 86
e 28 88
e 28 92
e 28 94
e 28 96
e 28 97
e 29 31
e 29 33
e 29 34
e 29 35
e 29 36
e 29 38
e 29 40
e 29 43
e 29 46
e 29 47
e 29 48
e 29 51
e 29 53
e 29 57
e 29 58
e 29 61
e 29 65
e 29 66
e 29 68
e 29 70
e 29 74
e 29 75
e 29 76
e 29 86
e 29 94
e 29 100
e 30 31
e 30 32
e 30 34
e 30 35
e 30 40
e 30 41
e 30 43
e 30 44
e 30 46
e 30 47
e 30 49
e 30 50
e 30 52
e 30 54
e 30 56
e 30 59
e 30 60
e 30 63
e 30 69
e 30 70
e 30 72
e 30 81
e 30 83
e 30 92
e 31 32
e 31 33
e 31 36
e 31 37
e 31 38
e 31 39
e 31 44
e 31 46
e 31 50
e 31 52
e 31 71
e 31 73
e 31 74
e 31 77
e 31 81
e 31 87
e 32 36
e 32 37
e 32 38
e 32 41
e 32 44
e 32 46
e 32 53
e 32 54
e 32 61
e 32 62
e 32 63
e 32 65
e 32 72
e 32 78
e 32 86
e 32 87
e 32 91
e 32 97
e 32 99
e 33 36
e 33 38
e 33 40
e 33 43
e 33 45
e 33 52
e 33 55
e 33 57
e 33 60
e 33 62
e 33 63
e 33 68
e 33 73
e 33 79
e 33 81
e 33 84
e 34 35
e 34 40
e 34 42
e 34 47
e 34 48
e 34 49
e 34 54
e 34 55
e 34 57
e 34 59
e 34 67
e 34 74
e 34 75
e 34 78
e 34 80
e 34 88
e 34 91
e 34 93
e 34 99
e 35 36
e 35 37
e 35 38
e 35 39
e 35 42
e 35 48
e 35 49
e 35 50
e 35 53
e 35 58
e 35 61
e 35 67
e 35 68
e 35 83
e 35 84
e 35 87
e 35 90
e 35 94
e 35 99
e 36 48
e 36 59
e 36 60
e 36 62
e 36 65
e 36 71
e 36 84
e 36 90
e 37 40
e 37 42
e 37 45
e 37 48
e 37 55
e 37 60
e 37 66
e 37 67
e 37 69
e 37 71
e 37 73
e 37 74
e 37 75
e 37 83
e 37 84
e 37 85
e 37 88
e 37 90
e 37 95
e 37 98
e 38 47
e 38 53
e 38 55
e 38 58
e 38 61
e 38 69
e 38 72
e 38 78
e 38 80
e 38 86
e 38 87
e 38 89
e 38 93
e 38 94
e 38 100
e 39 41
e 39 43
e 39 46
e 39 50
e 39 53
e 39 56
e 39 61
e 39 63
e 39 64
e 39 69
e 39 73
e 39 74
e 39 77
e 39 78
e 39 80
e 39 82
e 39 84
e 39 85
e 39 89
e 39 92
e 40 41
e 40 44
e 40 45
e 40 46
e 40 49
e 40 50
e 40 51
e 40 57
e 40 65
e 40 66
e 40 67
e 40 76
e 40 82
e 40 84
e 40 85
e 40 90
e 40 94
e 40 99
e 40 100
e 41 43
e 41 47
e 41 49
e 41 51
e 41 57
e 41 61
e 41 62
e 41 64
e 41 66
e 41 74
e 41 76
e 41 77
e 41 86
e 41 88
e 41 95
e 42 46
e 42 48
e 42 50
e 42 53
e 42 55
e 42 59
e 42 64
e 42 69
e 42 76
e 42 81
e 42 83
e 42 84
e 42 86
e 42 91
e 42 92
e 42 95
e 43 44
e 43 45
e 43 48
e 43 50
e 43 52
e 43 53
e 43 55
e 43 56
e 43 58
e 43 60
e 43 63
e 43 65
e 43 68
e 43 72
e 43 74
e 43 75
e 43 76
e 43 79
e 43 81
e 43 90
e 43 92
e 44 45
e 44 48
e 44 57
e 44 59
e 44 60
e 44 63
e 44 66
e 44 67
e 44 73
e 44 79
e 44 98
e 45 46
e 45 47
e 45 52
e 45 57
e 45 58
e 45 63
e 45 64
e 45 71
e 45 72
e 45 75
e 45 83
e 45 94
e 46 49
e 46 50
e 46 55
e 46 58
e 46 60
e 46 62
e 46 65
e 46 67
e 46 70
e 46 72
e 46 73
e 46 79
e 46 84
e 46 87
e 47 48
e 47 51
e 47 54
e 47 56
e 47 58
e 47 61
e 47 62
e 47 73
e 47 79
e 47 83
e 47 89
e 47 91
e 47 98
e 47 100
e 48 49
e 48 73
e 48 88
e 48 97
e 48 99
e 49 57
e 49 58
e 49 67
e 49 75
e 49 76
e 49 78
e 49 84
e 49 90
e 49 91
e 49 92
e 49 99
e 50 53
e 50 54
e 50 55
e 50 56
e 50 62
e 50 63
e 50 66
e 50 67
e 50 69
e 50 70
e 50 79
e 50 80
e 50 90
e 50 93
e 50 94
e 50 97
e 51 96
e 52 54
e 52 56
e 52 74
e 52 75
e 52 80
e 52 82
e 52 87
e 52 91
e 52 95
e 53 57
e 53 61
e 53 64
e 53 71
e 53 82
e 53 87
e 53 93
e 54 55
e 54 57
e 54 58
e 54 62
e 54 65
e 54 67
e 54 68
e 54 75
e 54 78
e 54 80
e 54 82
e 54 84
e 54 90
e 54 93
e 54 96
e 54 99
e 55 59
e 55 67
e 55 73
e 55 81
e 56 62
e 56 65
e 56 68
e 56 69
e 56 70
e 56 92
e 57 62
e 57 70
e 57 79
e 57 85
e 57 96
e 58 68
e 58 70
e 58 76
e 58 80
e 58 86
e 58 87
e 58 89
e 58 91
e 58 93
e 59 60
e 59 68
e 59 71
e 59 72
e 59 78
e 59 80
e 59 83
e 59 88
e 59 91
e 59 94
e 60 72
e 60 85
e 60 88
e 60 92
e 60 99
e 61 72
e 61 74
e 61 87
e 61 88
e 61 92
e 61 93
e 61 98
e 61 99
e 62 64
e 62 65
e 62 70
e 62 73
e 62 79
e 62 83
e 63 64
e 63 67
e 63 69
e 63 74
e 63 76
e 63 86
e 63 91
e 63 100
e 64 66
e 64 69
e 64 73
e 64 79
e 64 81
e 65 69
e 65 70
e 65 71
e 65 80
e 65 82
e 65 83
e 65 85
e 65 86
e 65 96
e 65 98
e 66 69
e 66 71
e 66 80
e 66 82
e 67 68
e 67 71
e 67 77
e 67 92
e 67 94
e 67 96
e 68 78
e 68 93
e 68 99
e 69 78
e 69 89
e 69 96
e 69 98
e 70 71
e 70 74
e 70 75
e 70 96
e 70 97
e 70 98
e 71 72
e 71 82
e 71 91
e 71 95
e 72 75
e 72 76
e 72 90
e 72 91
e 72 96
e 72 100
e 73 74
e 73 76
e 73 92
e 73 95
e 73 96
e 73 97
e 74 77
e 75 77
e 75 78
e 75 81
e 75 89
e 76 88
e 76 94
e 76 99
e 77 84
e 78 80
e 78 82
e 78 85
e 78 89
e 80 100
e 81 92
e 81 93
e 82 83
e 82 84
e 82 85
e 82 87
e 82 88
e 82 93
e 82 97
e 82 100
e 83 86
e 83 87
e 83 97
e 83 99
e 84 88
e 84 95
e 84 100
e 85 94
e 85 97
e 86 88
e 86 89
e 86 98
e 86 99
e 87 90
e 87 92
e 87 93
e 88 89
e 88 96
e 88 98
e 90 91
e 90 97
e 91 93
e 95 96
e 96 98
e 97 99
e 99 100
